computational_data/solutions/Reg3_n40_s0.sol
Optimal - objective value 18.00000000
      0 r_0                         1                       1
      2 r_2                         1                       1
      3 r_3                         1                       1
      5 r_5                         1                       1
      6 r_6                         1                       1
      8 r_8                         1                       1
     10 r_10                        1                       1
     17 r_17                        1                       1
     21 r_21                        1                       1
     26 r_26                        1                       1
     41 b_1                         1                       1
     54 b_14                        1                       1
     58 b_18                        1                       1
     63 b_23                        1                       1
     68 b_28                        1                       1
     70 b_30                        1                       1
     74 b_34                        1                       1
     77 b_37                        1                       1
